NAME : speedup15
TYPE : TSP
DIMENSION : 15
EDGE_WEIGHT_TYPE : EUC_2D
NODE_COORD_SECTION
1 149 287
2 26 138
3 388 221
4 294 315
5 1 362
6 476 30
7 480 190
8 214 265
9 0 349
10 340 307
11 289 356
12 388 355
13 495 44
14 358 373
15 87 474
EOF
